T = 150;
V = 10;
Q = 15;
L = 11;
C = 9;
P = 10;
time = [|  0, 30, 13, 29, 13, 24, 13,  2, 27, 29, 18, 24,  2, 24, 24, 13,  2, 18, 18, 24, 16, 16, 16, 16, 16, 16, 16, 16, 16, 16, 16, 16, 16, 16, 16, 16, 16, 16, 16, 16,
        | 30,  0, 23, 25, 23, 40, 23, 32, 11, 35, 12,  8, 32,  8,  8, 23, 32, 12, 12, 40, 22, 22, 22, 22, 22, 22, 22, 22, 22, 22, 22, 22, 22, 22, 22, 22, 22, 22, 22, 22,
        | 13, 23,  0, 17,  0, 20,  0, 14, 16, 19, 12, 19, 14, 19, 19,  0, 14, 12, 12, 20,  4,  4,  4,  4,  4,  4,  4,  4,  4,  4,  4,  4,  4,  4,  4,  4,  4,  4,  4,  4,
        | 29, 25, 17,  0, 17, 22, 17, 31, 15, 12, 22, 26, 31, 26, 26, 17, 31, 22, 22, 22, 13, 13, 13, 13, 13, 13, 13, 13, 13, 13, 13, 13, 13, 13, 13, 13, 13, 13, 13, 13,
        | 13, 23,  0, 17,  0, 20,  0, 14, 16, 19, 12, 19, 14, 19, 19,  0, 14, 12, 12, 20,  4,  4,  4,  4,  4,  4,  4,  4,  4,  4,  4,  4,  4,  4,  4,  4,  4,  4,  4,  4,
        | 24, 40, 20, 22, 20,  0, 20, 24, 32, 12, 31, 38, 24, 38, 38, 20, 24, 31, 31,  0, 19, 19, 19, 19, 19, 19, 19, 19, 19, 19, 19, 19, 19, 19, 19, 19, 19, 19, 19, 19,
        | 13, 23,  0, 17,  0, 20,  0, 14, 16, 19, 12, 19, 14, 19, 19,  0, 14, 12, 12, 20,  4,  4,  4,  4,  4,  4,  4,  4,  4,  4,  4,  4,  4,  4,  4,  4,  4,  4,  4,  4,
        |  2, 32, 14, 31, 14, 24, 14,  0, 29, 30, 20, 26,  0, 26, 26, 14,  0, 20, 20, 24, 18, 18, 18, 18, 18, 18, 18, 18, 18, 18, 18, 18, 18, 18, 18, 18, 18, 18, 18, 18,
        | 27, 11, 16, 15, 16, 32, 16, 29,  0, 25, 11, 13, 29, 13, 13, 16, 29, 11, 11, 32, 14, 14, 14, 14, 14, 14, 14, 14, 14, 14, 14, 14, 14, 14, 14, 14, 14, 14, 14, 14,
        | 29, 35, 19, 12, 19, 12, 19, 30, 25,  0, 29, 34, 30, 34, 34, 19, 30, 29, 29, 12, 17, 17, 17, 17, 17, 17, 17, 17, 17, 17, 17, 17, 17, 17, 17, 17, 17, 17, 17, 17,
        | 18, 12, 12, 22, 12, 31, 12, 20, 11, 29,  0,  7, 20,  7,  7, 12, 20,  0,  0, 31, 13, 13, 13, 13, 13, 13, 13, 13, 13, 13, 13, 13, 13, 13, 13, 13, 13, 13, 13, 13,
        | 24,  8, 19, 26, 19, 38, 19, 26, 13, 34,  7,  0, 26,  0,  0, 19, 26,  7,  7, 38, 19, 19, 19, 19, 19, 19, 19, 19, 19, 19, 19, 19, 19, 19, 19, 19, 19, 19, 19, 19,
        |  2, 32, 14, 31, 14, 24, 14,  0, 29, 30, 20, 26,  0, 26, 26, 14,  0, 20, 20, 24, 18, 18, 18, 18, 18, 18, 18, 18, 18, 18, 18, 18, 18, 18, 18, 18, 18, 18, 18, 18,
        | 24,  8, 19, 26, 19, 38, 19, 26, 13, 34,  7,  0, 26,  0,  0, 19, 26,  7,  7, 38, 19, 19, 19, 19, 19, 19, 19, 19, 19, 19, 19, 19, 19, 19, 19, 19, 19, 19, 19, 19,
        | 24,  8, 19, 26, 19, 38, 19, 26, 13, 34,  7,  0, 26,  0,  0, 19, 26,  7,  7, 38, 19, 19, 19, 19, 19, 19, 19, 19, 19, 19, 19, 19, 19, 19, 19, 19, 19, 19, 19, 19,
        | 13, 23,  0, 17,  0, 20,  0, 14, 16, 19, 12, 19, 14, 19, 19,  0, 14, 12, 12, 20,  4,  4,  4,  4,  4,  4,  4,  4,  4,  4,  4,  4,  4,  4,  4,  4,  4,  4,  4,  4,
        |  2, 32, 14, 31, 14, 24, 14,  0, 29, 30, 20, 26,  0, 26, 26, 14,  0, 20, 20, 24, 18, 18, 18, 18, 18, 18, 18, 18, 18, 18, 18, 18, 18, 18, 18, 18, 18, 18, 18, 18,
        | 18, 12, 12, 22, 12, 31, 12, 20, 11, 29,  0,  7, 20,  7,  7, 12, 20,  0,  0, 31, 13, 13, 13, 13, 13, 13, 13, 13, 13, 13, 13, 13, 13, 13, 13, 13, 13, 13, 13, 13,
        | 18, 12, 12, 22, 12, 31, 12, 20, 11, 29,  0,  7, 20,  7,  7, 12, 20,  0,  0, 31, 13, 13, 13, 13, 13, 13, 13, 13, 13, 13, 13, 13, 13, 13, 13, 13, 13, 13, 13, 13,
        | 24, 40, 20, 22, 20,  0, 20, 24, 32, 12, 31, 38, 24, 38, 38, 20, 24, 31, 31,  0, 19, 19, 19, 19, 19, 19, 19, 19, 19, 19, 19, 19, 19, 19, 19, 19, 19, 19, 19, 19,
        | 16, 22,  4, 13,  4, 19,  4, 18, 14, 17, 13, 19, 18, 19, 19,  4, 18, 13, 13, 19,  0,  0,  0,  0,  0,  0,  0,  0,  0,  0,  0,  0,  0,  0,  0,  0,  0,  0,  0,  0,
        | 16, 22,  4, 13,  4, 19,  4, 18, 14, 17, 13, 19, 18, 19, 19,  4, 18, 13, 13, 19,  0,  0,  0,  0,  0,  0,  0,  0,  0,  0,  0,  0,  0,  0,  0,  0,  0,  0,  0,  0,
        | 16, 22,  4, 13,  4, 19,  4, 18, 14, 17, 13, 19, 18, 19, 19,  4, 18, 13, 13, 19,  0,  0,  0,  0,  0,  0,  0,  0,  0,  0,  0,  0,  0,  0,  0,  0,  0,  0,  0,  0,
        | 16, 22,  4, 13,  4, 19,  4, 18, 14, 17, 13, 19, 18, 19, 19,  4, 18, 13, 13, 19,  0,  0,  0,  0,  0,  0,  0,  0,  0,  0,  0,  0,  0,  0,  0,  0,  0,  0,  0,  0,
        | 16, 22,  4, 13,  4, 19,  4, 18, 14, 17, 13, 19, 18, 19, 19,  4, 18, 13, 13, 19,  0,  0,  0,  0,  0,  0,  0,  0,  0,  0,  0,  0,  0,  0,  0,  0,  0,  0,  0,  0,
        | 16, 22,  4, 13,  4, 19,  4, 18, 14, 17, 13, 19, 18, 19, 19,  4, 18, 13, 13, 19,  0,  0,  0,  0,  0,  0,  0,  0,  0,  0,  0,  0,  0,  0,  0,  0,  0,  0,  0,  0,
        | 16, 22,  4, 13,  4, 19,  4, 18, 14, 17, 13, 19, 18, 19, 19,  4, 18, 13, 13, 19,  0,  0,  0,  0,  0,  0,  0,  0,  0,  0,  0,  0,  0,  0,  0,  0,  0,  0,  0,  0,
        | 16, 22,  4, 13,  4, 19,  4, 18, 14, 17, 13, 19, 18, 19, 19,  4, 18, 13, 13, 19,  0,  0,  0,  0,  0,  0,  0,  0,  0,  0,  0,  0,  0,  0,  0,  0,  0,  0,  0,  0,
        | 16, 22,  4, 13,  4, 19,  4, 18, 14, 17, 13, 19, 18, 19, 19,  4, 18, 13, 13, 19,  0,  0,  0,  0,  0,  0,  0,  0,  0,  0,  0,  0,  0,  0,  0,  0,  0,  0,  0,  0,
        | 16, 22,  4, 13,  4, 19,  4, 18, 14, 17, 13, 19, 18, 19, 19,  4, 18, 13, 13, 19,  0,  0,  0,  0,  0,  0,  0,  0,  0,  0,  0,  0,  0,  0,  0,  0,  0,  0,  0,  0,
        | 16, 22,  4, 13,  4, 19,  4, 18, 14, 17, 13, 19, 18, 19, 19,  4, 18, 13, 13, 19,  0,  0,  0,  0,  0,  0,  0,  0,  0,  0,  0,  0,  0,  0,  0,  0,  0,  0,  0,  0,
        | 16, 22,  4, 13,  4, 19,  4, 18, 14, 17, 13, 19, 18, 19, 19,  4, 18, 13, 13, 19,  0,  0,  0,  0,  0,  0,  0,  0,  0,  0,  0,  0,  0,  0,  0,  0,  0,  0,  0,  0,
        | 16, 22,  4, 13,  4, 19,  4, 18, 14, 17, 13, 19, 18, 19, 19,  4, 18, 13, 13, 19,  0,  0,  0,  0,  0,  0,  0,  0,  0,  0,  0,  0,  0,  0,  0,  0,  0,  0,  0,  0,
        | 16, 22,  4, 13,  4, 19,  4, 18, 14, 17, 13, 19, 18, 19, 19,  4, 18, 13, 13, 19,  0,  0,  0,  0,  0,  0,  0,  0,  0,  0,  0,  0,  0,  0,  0,  0,  0,  0,  0,  0,
        | 16, 22,  4, 13,  4, 19,  4, 18, 14, 17, 13, 19, 18, 19, 19,  4, 18, 13, 13, 19,  0,  0,  0,  0,  0,  0,  0,  0,  0,  0,  0,  0,  0,  0,  0,  0,  0,  0,  0,  0,
        | 16, 22,  4, 13,  4, 19,  4, 18, 14, 17, 13, 19, 18, 19, 19,  4, 18, 13, 13, 19,  0,  0,  0,  0,  0,  0,  0,  0,  0,  0,  0,  0,  0,  0,  0,  0,  0,  0,  0,  0,
        | 16, 22,  4, 13,  4, 19,  4, 18, 14, 17, 13, 19, 18, 19, 19,  4, 18, 13, 13, 19,  0,  0,  0,  0,  0,  0,  0,  0,  0,  0,  0,  0,  0,  0,  0,  0,  0,  0,  0,  0,
        | 16, 22,  4, 13,  4, 19,  4, 18, 14, 17, 13, 19, 18, 19, 19,  4, 18, 13, 13, 19,  0,  0,  0,  0,  0,  0,  0,  0,  0,  0,  0,  0,  0,  0,  0,  0,  0,  0,  0,  0,
        | 16, 22,  4, 13,  4, 19,  4, 18, 14, 17, 13, 19, 18, 19, 19,  4, 18, 13, 13, 19,  0,  0,  0,  0,  0,  0,  0,  0,  0,  0,  0,  0,  0,  0,  0,  0,  0,  0,  0,  0,
        | 16, 22,  4, 13,  4, 19,  4, 18, 14, 17, 13, 19, 18, 19, 19,  4, 18, 13, 13, 19,  0,  0,  0,  0,  0,  0,  0,  0,  0,  0,  0,  0,  0,  0,  0,  0,  0,  0,  0,  0|];
l =     [ 11,  9, 10,  7, 10,  8, 10,  2,  4,  3,  1,  5,  2,  5,  5, 10,  2,  1,  1,  8];
a =     [ 16, 27, 28, 13, 21, 44, 37, 18, 16, 17, 48, 54, 55, 51, 59, 74, 61, 54, 45, 46];
b =     [ 31, 54, 49, 44, 45, 75, 73, 48, 54, 46,116,102,109, 96,107,135,106, 94,111,103];
s =     [ 14, 19, 13, 12, 19, 10, 10, 16, 18, 17, 14, 19, 13, 12, 19, 10, 10, 16, 18, 17];
q =     [  2,  2,  1,  3,  4,  4,  3,  3,  4,  1, -2, -2, -1, -3, -4, -4, -3, -3, -4, -1];
